c 1 CONFIG_FLOW_NODE_TYPE_TRIGONOMETRY
c 2 CONFIG_USE_CHECK
c 3 CONFIG_LINUX_MICRO_SYSCTL
c 4 CONFIG_FLOW_NODE_TYPE_WALLCLOCK
c 5 CONFIG_HAVE_GLIB
c 6 CONFIG_LINUX_MICRO_HOSTNAME
c 7 CONFIG_FLOW_NODE_TYPE_NETWORK
c 8 CONFIG_FLOW
c 9 CONFIG_DEFAULT_LOG_LEVEL_CRITICAL
c 10 CONFIG_LINUX_MICRO_BLUETOOTH
c 11 CONFIG_FLOW_NODE_TYPE_FS
c 12 CONFIG_FLOW_NODE_TYPE_BOOLEAN
c 13 CONFIG_HAVE_SYSTEMD
c 14 CONFIG_FLOW_NODE_TYPE_COLOR
c 15 CONFIG_FLOW_NODE_TYPE_TIMER
c 16 CONFIG_FLOW_NODE_TYPE_GROVE
c 17 CONFIG_FLOW_NODE_TYPE_CONVERTER
c 18 CONFIG_FLOW_NODE_TYPES
c 19 CONFIG_USE_GLIB
c 20 CONFIG_USE_SYSTEMD
c 21 CONFIG_FBP_GENERATOR
c 22 CONFIG_LOG
c 23 CONFIG_FLOW_NODE_TYPE_GTK
c 24 CONFIG_FLOW_NODE_TYPE_APP
c 25 CONFIG_FLOW_NODE_TYPE_BYTE
c 26 CONFIG_FLOW_NODE_TYPE_PLATFORM
c 27 CONFIG_FLOW_NODE_TYPE_UNIX_SOCKET
c 28 CONFIG_TEST_MAINLOOP_THREADS_SOL_RUN
c 29 CONFIG_PREFIX
c 30 CONFIG_HAVE_DLFCN_H
c 31 CONFIG_FLOW_NODE_TYPE_FLOAT
c 32 CONFIG_HAVE_PPOLL
c 33 CONFIG_FLOW_NODE_TYPE_RANDOM
c 34 CONFIG_FLOW_NODE_TYPE_GYROSCOPE
c 35 CONFIG_HAVE_CHECK
c 36 CONFIG_TEST_MAINLOOP_THREADS
c 37 CONFIG_PLATFORM_DUMMY
c 38 CONFIG_USE_UDEV
c 39 CONFIG_HAVE_DECL_IFLA_INET6_ADDR_GEN_MODE
c 40 CONFIG_PTHREAD
c 41 CONFIG_LINUX_MICRO
c 42 CONFIG_FLOW_NODE_TYPE_OIC
c 43 CONFIG_HAVE_DECL_STRNDUPA
c 44 CONFIG_FLOW_NODE_TYPE_INT
c 45 CONFIG_COAP
c 46 CONFIG_FLOW_NODE_TYPE_PIEZO_SPEAKER
c 47 CONFIG_CORE
c 48 CONFIG_FBP_RUNNER
c 49 CONFIG_FLOW_NODE_TYPE_HUB
c 50 CONFIG_HAVE_PTHREAD
c 51 CONFIG_MAINLOOP_POSIX
c 52 CONFIG_HAVE_ACCEPT4
c 53 CONFIG_TEST_COAP
c 54 CONFIG_LINUX_MICRO_DBUS
c 55 CONFIG_FLOW_NODE_TYPE_STRING
c 56 CONFIG_HAVE_KDBUS
c 57 __Root__
c 58 CONFIG_SOL_PLATFORM_LINUX
c 59 CONFIG_USE_GTK
c 60 CONFIG_FLOW_NODE_TYPE_SERVO_MOTOR
c 61 CONFIG_FLOW_NODE_TYPE_TEST
c 62 CONFIG_LINUX_MICRO_WATCHDOG
c 63 CONFIG_LINUX_MICRO_RC_D
c 64 CONFIG_DEFAULT_LOG_LEVEL_WARNING
c 65 CONFIG_LINUX_MICRO_NETWORK_UP
c 66 CONFIG_FLOW_NODE_TYPE_PROCESS
c 67 CONFIG_FLOW_NODE_TYPE_CALAMARI
c 68 CONFIG_RESOLVER_CONFFILE
c 69 CONFIG_MAINLOOP_RIOTOS
c 70 CONFIG_DEFAULT_LOG_LEVEL_ERROR
c 71 CONFIG_LINUX_MICRO_LOCALE
c 72 CONFIG_ENABLE_DYNAMIC_MODULES
c 73 CONFIG_FLOW_NODE_TYPE_FILE
c 74 CONFIG_HAVE_ISATTY
c 75 CONFIG_LINUX_MICRO_FSTAB
c 76 CONFIG_FLOW_NODE_TYPE_UDEV
c 77 CONFIG_KDBUS
c 78 CONFIG_HAVE_UDEV
c 79 CONFIG_PLATFORM_SYSTEMD
c 80 CONFIG_HAVE_RIOTOS
c 81 CONFIG_PLATFORM_RIOTOS
c 82 CONFIG_FLOW_NODE_TYPE_CONSOLE
c 83 CONFIG_MAINLOOP_GLIB
c 84 CONFIG_FLOW_NODE_TYPE_GPIO
c 85 CONFIG_INSPECTOR
c 86 CONFIG_FBP_TO_DOT
c 87 CONFIG_INTERNAL_SHARED
c 88 CONFIG_FLOW_NODE_TYPE_EVDEV
c 89 CONFIG_FLOW_NODE_TYPE_AIO
c 90 CONFIG_FLOW_NODE_TYPE_PWM
c 91 CONFIG_FLOW_NODE_TYPE_CONSTANT
c 92 CONFIG_HAVE_GTK
c 93 CONFIG_LINUX_MICRO_CONSOLE
c 94 CONFIG_FLOW_NODE_TYPE_ACCELEROMETER
c 95 CONFIG_DEFAULT_LOG_LEVEL_INFO
c 96 CONFIG_SOCKET_LINUX
c 97 CONFIG_PLATFORM_LINUX_MICRO
c 98 CONFIG_DEFAULT_LOG_LEVEL_DEBUG
c 99 CONFIG_FLOW_NODE_TYPE_FILTER_REPEATED
c 100 CONFIG_FLOW_NODE_TYPE_KEYBOARD
c 101 CONFIG_MODULES
p cnf 101 287
57 0
57 -58 0
57 -79 0
-11 57 0
-8 57 0
57 -80 0
57 -69 0
57 -68 0
-48 57 0
-41 57 0
-54 57 0
57 -70 0
57 -95 0
57 -84 0
57 -64 0
-9 57 0
-42 57 0
57 -91 0
57 -92 0
-23 57 0
57 -59 0
-37 57 0
57 -97 0
57 -81 0
57 -90 0
57 -75 0
57 -83 0
57 -73 0
-2 57 0
57 -85 0
-28 57 0
-51 57 0
-5 57 0
57 -77 0
-56 57 0
-6 57 0
-21 57 0
-49 57 0
57 -76 0
-38 57 0
57 -66 0
-13 57 0
-40 57 0
-39 57 0
-34 57 0
-25 57 0
-19 57 0
-50 57 0
57 -96 0
57 -82 0
-55 57 0
-36 57 0
-33 57 0
-22 57 0
-14 57 0
-52 57 0
-30 57 0
-18 57 0
57 -87 0
-24 57 0
-7 57 0
-45 57 0
57 -100 0
-43 57 0
-35 57 0
-26 57 0
57 -94 0
57 -93 0
57 -74 0
57 -67 0
57 -86 0
57 -88 0
-4 57 0
57 -98 0
57 -99 0
-31 57 0
57 -61 0
-47 57 0
57 -101 0
57 -72 0
-32 57 0
-20 57 0
-15 57 0
-16 57 0
-10 57 0
57 -62 0
-44 57 0
57 -89 0
-12 57 0
-29 57 0
-3 57 0
57 -65 0
-46 57 0
57 -60 0
-27 57 0
-53 57 0
57 -63 0
-1 57 0
57 -71 0
57 -78 0
-17 57 0
58 -79 0
8 -11 0
-69 80 0
8 -48 68 0
41 -54 0
-70 -95 0
8 -84 0
-64 -70 0
-9 -70 0
-42 58 0
8 -91 0
8 -23 92 0
-23 59 0
-37 -97 0
-37 -81 0
8 -90 0
41 -75 0
-69 -83 0
8 -73 0
2 0
-64 -95 0
-48 85 0
-28 51 0
-5 51 -58 69 83 0
-37 -79 0
-81 -97 0
-69 81 0
56 77 -79 0
-6 41 0
-21 68 85 0
8 -42 0
8 -49 0
8 -42 58 0
38 -76 0
8 -66 0
13 77 -79 0
-28 40 51 0
-21 58 0
39 0
8 -23 0
8 -34 0
8 -25 0
37 79 81 97 0
19 -77 0
-40 50 58 0
-79 -81 0
-48 58 68 0
58 -96 0
8 -82 0
8 -55 0
-36 40 0
13 -79 0
-51 -69 0
8 -33 0
-9 22 0
8 -14 0
52 0
30 0
22 -70 0
-18 58 85 0
87 0
58 77 -79 0
8 -24 0
-92 0
-7 8 0
-42 45 0
8 -48 58 0
8 -100 0
-43 0
-13 0
-35 0
8 -26 0
8 -42 45 0
8 -94 0
-21 85 0
5 -83 0
41 -93 0
-21 68 0
-40 58 0
74 0
8 -67 84 0
58 85 -86 0
-21 58 85 0
8 -21 0
8 -21 85 0
-48 58 85 0
8 -21 68 0
5 0
56 -77 79 0
58 -97 0
8 -88 0
-4 8 0
-40 50 0
-51 58 0
9 -22 64 70 95 98 0
68 85 -86 0
8 -48 85 0
22 -95 0
8 -99 0
-9 -98 0
-67 84 0
-64 -98 0
8 -31 0
58 -94 0
-34 58 0
8 -61 0
47 0
68 -86 0
19 -83 0
-72 101 0
32 0
20 -22 0
8 -15 0
-37 58 0
-9 -64 0
51 -58 69 83 0
85 -86 0
-42 45 58 0
72 -101 0
-36 40 51 0
-41 97 0
8 -16 0
-28 40 0
58 -66 0
8 -67 0
-20 22 79 0
8 -76 0
-56 0
-18 85 0
-10 41 0
41 -62 0
19 -68 0
8 -44 0
-79 -97 0
8 40 -73 0
-48 68 85 0
-18 68 85 0
8 -89 0
58 -83 0
8 -21 58 0
13 -77 79 0
-23 92 0
50 0
58 -77 79 0
8 -12 0
-38 76 0
58 -86 0
58 68 -86 0
29 0
8 58 -66 0
-3 41 0
22 -98 0
23 -59 0
-36 51 0
20 -79 0
37 -58 79 97 0
41 -65 0
-9 -95 0
8 -34 58 0
8 -46 0
77 -79 0
8 -60 0
8 -27 0
45 -53 0
-21 58 68 0
41 -63 0
-51 -83 0
-1 8 0
-18 58 0
-48 58 0
40 -73 0
41 -71 0
-70 -98 0
-78 0
-18 68 0
-13 -56 -58 77 -79 0
-18 58 68 0
8 -17 0
-19 68 77 83 0
-80 0
51 69 -80 -81 83 0
8 58 -94 0
8 -48 0
22 -64 0
-48 68 0
-95 -98 0
